
Gurobi 10.0.2 (linux64) logging started Sat 20 Jul 2024 01:49:30 PM -05

Set parameter LogFile to value "gurobi.log"
Gurobi Optimizer version 10.0.2 build v10.0.2rc0 (linux64)

CPU model: Intel(R) Core(TM) i5-1035G1 CPU @ 1.00GHz, instruction set [SSE2|AVX|AVX2|AVX512]
Thread count: 4 physical cores, 8 logical processors, using up to 8 threads

Academic license 2446675 - for non-commercial use only - registered to mi___@epn.edu.ec
Optimize a model with 2720 rows, 1215 columns and 8483 nonzeros
Model fingerprint: 0x678b61d2
Variable types: 0 continuous, 1215 integer (0 binary)
Coefficient statistics:
  Matrix range     [1e+00, 8e+01]
  Objective range  [1e-01, 1e+01]
  Bounds range     [1e+00, 1e+03]
  RHS range        [1e+00, 2e+03]
Found heuristic solution: objective 2834.4272100
Presolve removed 2707 rows and 1199 columns
Presolve time: 0.04s
Presolved: 13 rows, 16 columns, 38 nonzeros
Found heuristic solution: objective 2892.7912730
Variable types: 0 continuous, 16 integer (3 binary)
Found heuristic solution: objective 2902.2457250

Root relaxation: objective 2.940529e+03, 4 iterations, 0.01 seconds (0.00 work units)

    Nodes    |    Current Node    |     Objective Bounds      |     Work
 Expl Unexpl |  Obj  Depth IntInf | Incumbent    BestBd   Gap | It/Node Time

*    0     0               0    2940.5294660 2940.52947  0.00%     -    0s

Explored 1 nodes (4 simplex iterations) in 0.13 seconds (0.00 work units)
Thread count was 8 (of 8 available processors)

Solution count 4: 2940.53 2902.25 2892.79 2834.43 

Optimal solution found (tolerance 1.00e-04)
Best objective 2.940529466000e+03, best bound 2.940529466000e+03, gap 0.0000%
